Solver command line: ['/usr/local/bin/gurobi.sh']

Set parameter WLSAccessID
Set parameter WLSSecret
Set parameter LicenseID to value 2606900
Academic license 2606900 - for non-commercial use only - registered to so___@htwk-leipzig.de
Read LP format model from file /var/folders/jf/5sh4zzv94dxbcz8g7tg2jq5h0000gn/T/tmplvhsb8ut.pyomo.lp
Reading time = 3.99 seconds
objective: 948674 rows, 878399 columns, 2099360 nonzeros
Set parameter TimeLimit to value 5000
Set parameter MIPGap to value 0.08
Gurobi Optimizer version 12.0.1 build v12.0.1rc0 (mac64[rosetta2] - Darwin 24.3.0 24D70)

CPU model: Apple M3
Thread count: 8 physical cores, 8 logical processors, using up to 8 threads

Non-default parameters:
TimeLimit  5000
MIPGap  0.08

Academic license 2606900 - for non-commercial use only - registered to so___@htwk-leipzig.de
Optimize a model with 948674 rows, 878399 columns and 2099360 nonzeros
Model fingerprint: 0xf95c93c3
Model has 8783 quadratic constraints
Variable types: 755424 continuous, 122975 integer (105408 binary)
Coefficient statistics:
  Matrix range     [6e-03, 1e+03]
  QMatrix range    [1e+00, 1e+00]
  Objective range  [1e-02, 4e+02]
  Bounds range     [1e+00, 3e+00]
  RHS range        [8e-05, 1e+04]
Presolve removed 781800 rows and 676389 columns
Presolve time: 0.82s
Presolved: 166874 rows, 202010 columns, 553336 nonzeros
Variable types: 131741 continuous, 70269 integer (61485 binary)
Performing another presolve...
Presolve removed 70271 rows and 70271 columns (presolve time = 9s)...
Presolve removed 70271 rows and 70271 columns
Presolve time: 8.56s
Deterministic concurrent LP optimizer: primal and dual simplex
Showing primal log only...


Root simplex log...

Iteration    Objective       Primal Inf.    Dual Inf.      Time
       0    4.3837491e+07   4.735263e+07   7.466654e+13     11s
Concurrent spin time: 0.00s

Solved with dual simplex

Root simplex log...

Iteration    Objective       Primal Inf.    Dual Inf.      Time
   64019    4.5092658e+07   0.000000e+00   0.000000e+00     12s

Root relaxation: objective 4.509266e+07, 64019 iterations, 1.96 seconds (1.51 work units)
Total elapsed time = 12.44s (DegenMoves)

    Nodes    |    Current Node    |     Objective Bounds      |     Work
 Expl Unexpl |  Obj  Depth IntInf | Incumbent    BestBd   Gap | It/Node Time

     0     0 4.5093e+07    0  362          - 4.5093e+07      -     -   15s
     0     0 4.5095e+07    0  437          - 4.5095e+07      -     -   62s
     0     0 4.5095e+07    0  443          - 4.5095e+07      -     -   63s
     0     0 4.5095e+07    0  444          - 4.5095e+07      -     -   63s
     0     0 4.5097e+07    0  393          - 4.5097e+07      -     -   65s
     0     0 4.5097e+07    0  404          - 4.5097e+07      -     -   66s
     0     0 4.5097e+07    0  403          - 4.5097e+07      -     -   66s
     0     0 4.5097e+07    0  402          - 4.5097e+07      -     -   66s
     0     0 4.5097e+07    0  408          - 4.5097e+07      -     -   67s
     0     0 4.5097e+07    0  410          - 4.5097e+07      -     -   68s
     0     0 4.5097e+07    0  411          - 4.5097e+07      -     -   69s
     0     0 4.5097e+07    0  421          - 4.5097e+07      -     -   70s
     0     0 4.5097e+07    0  406          - 4.5097e+07      -     -   71s
     0     0 4.5097e+07    0  399          - 4.5097e+07      -     -   71s
     0     0 4.5097e+07    0  407          - 4.5097e+07      -     -   72s
     0     0 4.5097e+07    0  400          - 4.5097e+07      -     -   73s
     0     0 4.5097e+07    0  335          - 4.5097e+07      -     -   75s
     0     2 4.5097e+07    0  324          - 4.5097e+07      -     -   87s
    23    68 4.5098e+07    5  364          - 4.5098e+07      -   146   90s
   187   426 4.5098e+07   18  355          - 4.5098e+07      -  32.9   98s
   425   994 4.5098e+07   38  352          - 4.5098e+07      -  18.5  109s
   993  1676 4.5098e+07   86  351          - 4.5098e+07      -  10.7  118s
  1675  2392 4.5098e+07  150  347          - 4.5098e+07      -   9.2  127s
  2391  2984 4.5098e+07  218  341          - 4.5098e+07      -   8.9  135s
  2983  3466 4.5099e+07  282  331          - 4.5098e+07      -   8.9  143s
  3465  3945 4.5099e+07  329  316          - 4.5098e+07      -   8.6  151s
  3944  4639 4.5099e+07  378  291          - 4.5098e+07      -   8.5  159s
  4638  5029 4.5099e+07  464  292          - 4.5098e+07      -   7.6  166s
  5028  5466 4.5099e+07  495  292          - 4.5098e+07      -   7.3  174s
  5465  6057 4.5099e+07  522  294          - 4.5098e+07      -   7.1  181s
  6056  6610 4.5099e+07  598  290          - 4.5098e+07      -   6.9  189s
  6609  7194 4.5100e+07  647  289          - 4.5098e+07      -   6.6  197s
  7205  7724 4.5100e+07  713  271          - 4.5098e+07      -   6.8  204s
  7740  7725 4.5099e+07  504 13175          - 4.5098e+07      -   7.7  205s
  7742  7726 4.5098e+07   14  359          - 4.5098e+07      -   7.7  253s
  7743  7727 4.5098e+07  290  389          - 4.5098e+07      -   7.7  256s
  7749  7731 4.5098e+07   49  364          - 4.5098e+07      -   7.7  260s
  7754  7734 4.5098e+07  241  389          - 4.5098e+07      -   7.7  265s
  7760  7738 4.5100e+07  690  399          - 4.5098e+07      -   7.7  271s
  7763  7740 4.5098e+07   91  405          - 4.5098e+07      -   7.7  276s
  7767  7743 4.5099e+07  282  417          - 4.5098e+07      -   7.7  282s
  7769  7744 4.5099e+07  313  418          - 4.5098e+07      -   7.7  286s
  7772  7746 4.5099e+07  388  417          - 4.5098e+07      -   7.7  291s
  7774  7748 4.5100e+07  698  332          - 4.5098e+07      -   7.7  296s
  7775  7748 4.5099e+07  337  332          - 4.5098e+07      -   7.7  304s
H 7776  7364                    4.670193e+07 4.5098e+07  3.43%  27.6  308s

Cutting planes:
  Gomory: 359
  Cover: 169
  Implied bound: 100
  Projected implied bound: 34
  Clique: 3
  MIR: 366
  Mixing: 3
  StrongCG: 1
  Flow cover: 248
  RLT: 18
  Relax-and-lift: 81

Explored 7778 nodes (214529 simplex iterations) in 308.80 seconds (147.01 work units)
Thread count was 8 (of 8 available processors)

Solution count 1: 4.67019e+07 

Optimal solution found (tolerance 8.00e-02)
Best objective 4.670192766247e+07, best bound 4.509842342675e+07, gap 3.4335%

